; Options: -in -smt2
(set-option :produce-unsat-assumptions true)

(declare-fun start!1357 () Bool)

(assert start!1357)

(declare-fun b!6567 () Bool)

(declare-fun res!5363 () Bool)

(declare-fun e!3529 () Bool)

(assert (=> b!6567 (=> (not res!5363) (not e!3529))))

(declare-datatypes ((array!567 0))(
  ( (array!568 (arr!253 (Array (_ BitVec 32) (_ FloatingPoint 11 53))) (size!253 (_ BitVec 32))) )
))
(declare-fun f!79 () array!567)

(declare-fun fInv!0 (array!567) Bool)

(assert (=> b!6567 (= res!5363 (fInv!0 f!79))))

(declare-fun b!6568 () Bool)

(declare-fun e!3527 () Bool)

(assert (=> b!6568 (= e!3527 e!3529)))

(declare-fun res!5361 () Bool)

(assert (=> b!6568 (=> (not res!5361) (not e!3529))))

(declare-fun i!190 () (_ BitVec 32))

(declare-fun jz!36 () (_ BitVec 32))

(assert (=> b!6568 (= res!5361 (and (bvsle #b00000000000000000000000000000000 i!190) (bvsle i!190 (bvadd jz!36 #b00000000000000000000000000000001))))))

(declare-datatypes ((Unit!439 0))(
  ( (Unit!440) )
))
(declare-datatypes ((tuple3!100 0))(
  ( (tuple3!101 (_1!164 Unit!439) (_2!164 (_ BitVec 32)) (_3!150 array!567)) )
))
(declare-fun lt!3481 () tuple3!100)

(declare-fun e!3533 () tuple3!100)

(assert (=> b!6568 (= lt!3481 e!3533)))

(declare-fun c!815 () Bool)

(declare-fun lt!3479 () (_ BitVec 32))

(declare-fun xx!50 () array!567)

(assert (=> b!6568 (= c!815 (bvsle lt!3479 (bvadd (bvsub (size!253 xx!50) #b00000000000000000000000000000001) jz!36)))))

(assert (=> b!6568 (= lt!3479 #b00000000000000000000000000000000)))

(declare-fun lt!3478 () array!567)

(assert (=> b!6568 (= lt!3478 (array!568 ((as const (Array (_ BitVec 32) (_ FloatingPoint 11 53))) (fp #b0 #b00000000000 #b0000000000000000000000000000000000000000000000000000)) #b00000000000000000000000000010100))))

(declare-fun b!6569 () Bool)

(declare-fun e!19 () (_ BitVec 32))

(declare-fun e!3528 () tuple3!100)

(declare-fun lt!3480 () array!567)

(declare-fun lt!3482 () (_ BitVec 32))

(declare-fun timesTwoOverPiWhile!0 ((_ BitVec 32) (_ BitVec 32) array!567 (_ BitVec 32) array!567) tuple3!100)

(assert (=> b!6569 (= e!3528 (timesTwoOverPiWhile!0 e!19 jz!36 xx!50 lt!3482 lt!3480))))

(declare-fun b!6570 () Bool)

(declare-fun res!5357 () Bool)

(assert (=> b!6570 (=> (not res!5357) (not e!3529))))

(declare-fun Q!0 ((_ FloatingPoint 11 53)) Bool)

(assert (=> b!6570 (= res!5357 (Q!0 (select (arr!253 f!79) (bvadd i!190 #b00000000000000000000000000000100))))))

(declare-fun q!51 () array!567)

(declare-fun e!3526 () Bool)

(declare-fun b!6571 () Bool)

(declare-fun qInv!0 (array!567) Bool)

(assert (=> b!6571 (= e!3526 (not (qInv!0 (array!568 (store (arr!253 q!51) i!190 (fp.add roundNearestTiesToEven (fp.add roundNearestTiesToEven (fp.add roundNearestTiesToEven (fp.add roundNearestTiesToEven (fp.mul roundNearestTiesToEven (select (arr!253 xx!50) #b00000000000000000000000000000000) (select (arr!253 f!79) (bvadd i!190 #b00000000000000000000000000000100))) (fp.mul roundNearestTiesToEven (select (arr!253 xx!50) #b00000000000000000000000000000001) (select (arr!253 f!79) (bvadd i!190 #b00000000000000000000000000000011)))) (fp.mul roundNearestTiesToEven (select (arr!253 xx!50) #b00000000000000000000000000000010) (select (arr!253 f!79) (bvadd i!190 #b00000000000000000000000000000010)))) (fp.mul roundNearestTiesToEven (select (arr!253 xx!50) #b00000000000000000000000000000011) (select (arr!253 f!79) (bvadd i!190 #b00000000000000000000000000000001)))) (fp.mul roundNearestTiesToEven (select (arr!253 xx!50) #b00000000000000000000000000000100) (select (arr!253 f!79) i!190)))) (size!253 q!51)))))))

(declare-fun b!6572 () Bool)

(declare-fun e!3535 () Bool)

(assert (=> b!6572 (= e!3535 e!3526)))

(declare-fun res!5359 () Bool)

(assert (=> b!6572 (=> res!5359 e!3526)))

(declare-fun lt!3486 () (_ BitVec 32))

(assert (=> b!6572 (= res!5359 (or (bvsgt #b00000000000000000000000000000000 lt!3486) (bvsgt lt!3486 (bvadd jz!36 #b00000000000000000000000000000001))))))

(declare-fun lt!3483 () tuple3!100)

(assert (=> b!6572 (= lt!3483 e!3528)))

(declare-fun c!816 () Bool)

(assert (=> b!6572 (= c!816 (bvsle lt!3482 (bvadd (bvsub (size!253 xx!50) #b00000000000000000000000000000001) jz!36)))))

(assert (=> b!6572 (= lt!3482 #b00000000000000000000000000000000)))

(assert (=> b!6572 (= lt!3480 (array!568 ((as const (Array (_ BitVec 32) (_ FloatingPoint 11 53))) (fp #b0 #b00000000000 #b0000000000000000000000000000000000000000000000000000)) #b00000000000000000000000000010100))))

(declare-fun b!6573 () Bool)

(declare-fun Unit!441 () Unit!439)

(assert (=> b!6573 (= e!3528 (tuple3!101 Unit!441 lt!3482 lt!3480))))

(declare-fun b!6574 () Bool)

(declare-fun e!3530 () Bool)

(assert (=> b!6574 (= e!3529 e!3530)))

(declare-fun res!5365 () Bool)

(assert (=> b!6574 (=> (not res!5365) (not e!3530))))

(assert (=> b!6574 (= res!5365 (bvsle lt!3486 jz!36))))

(assert (=> b!6574 (= lt!3486 (bvadd i!190 #b00000000000000000000000000000001))))

(declare-fun b!6575 () Bool)

(declare-fun res!5362 () Bool)

(assert (=> b!6575 (=> (not res!5362) (not e!3529))))

(assert (=> b!6575 (= res!5362 (Q!0 (select (arr!253 f!79) (bvadd i!190 #b00000000000000000000000000000010))))))

(declare-fun b!6576 () Bool)

(declare-fun res!5360 () Bool)

(assert (=> b!6576 (=> (not res!5360) (not e!3529))))

(assert (=> b!6576 (= res!5360 (Q!0 (select (arr!253 f!79) (bvadd i!190 #b00000000000000000000000000000001))))))

(declare-fun b!6577 () Bool)

(declare-fun e!3531 () Bool)

(assert (=> b!6577 (= e!3531 e!3527)))

(declare-fun res!5366 () Bool)

(assert (=> b!6577 (=> (not res!5366) (not e!3527))))

(declare-fun lt!3484 () (_ BitVec 32))

(assert (=> b!6577 (= res!5366 (= (bvsub e!19 (bvmul #b00000000000000000000000000011000 (bvadd (ite (bvslt lt!3484 #b00000000000000000000000000000000) #b00000000000000000000000000000000 lt!3484) #b00000000000000000000000000000001))) #b00000000000000000000000000000000))))

(assert (=> b!6577 (= lt!3484 (bvsdiv (bvsub e!19 #b00000000000000000000000000000011) #b00000000000000000000000000011000))))

(declare-fun res!5356 () Bool)

(assert (=> start!1357 (=> (not res!5356) (not e!3531))))

(assert (=> start!1357 (= res!5356 (and (bvsle #b00000000000000000000000000000000 jz!36) (bvsle jz!36 #b00000000000000000000000000001111) (bvsle #b00000000000000000000000000011000 e!19) (bvsle e!19 #b00000000000000000000001111110000) (= (bvsrem e!19 #b00000000000000000000000000011000) #b00000000000000000000000000000000)))))

(assert (=> start!1357 e!3531))

(declare-fun array_inv!203 (array!567) Bool)

(assert (=> start!1357 (array_inv!203 f!79)))

(assert (=> start!1357 (array_inv!203 q!51)))

(assert (=> start!1357 true))

(assert (=> start!1357 (array_inv!203 xx!50)))

(declare-fun b!6578 () Bool)

(declare-fun res!5354 () Bool)

(assert (=> b!6578 (=> (not res!5354) (not e!3529))))

(declare-fun P!3 ((_ FloatingPoint 11 53)) Bool)

(assert (=> b!6578 (= res!5354 (P!3 (select (store (arr!253 q!51) i!190 (fp.add roundNearestTiesToEven (fp.add roundNearestTiesToEven (fp.add roundNearestTiesToEven (fp.add roundNearestTiesToEven (fp.mul roundNearestTiesToEven (select (arr!253 xx!50) #b00000000000000000000000000000000) (select (arr!253 f!79) (bvadd i!190 #b00000000000000000000000000000100))) (fp.mul roundNearestTiesToEven (select (arr!253 xx!50) #b00000000000000000000000000000001) (select (arr!253 f!79) (bvadd i!190 #b00000000000000000000000000000011)))) (fp.mul roundNearestTiesToEven (select (arr!253 xx!50) #b00000000000000000000000000000010) (select (arr!253 f!79) (bvadd i!190 #b00000000000000000000000000000010)))) (fp.mul roundNearestTiesToEven (select (arr!253 xx!50) #b00000000000000000000000000000011) (select (arr!253 f!79) (bvadd i!190 #b00000000000000000000000000000001)))) (fp.mul roundNearestTiesToEven (select (arr!253 xx!50) #b00000000000000000000000000000100) (select (arr!253 f!79) i!190)))) i!190)))))

(declare-fun b!6579 () Bool)

(declare-fun Unit!442 () Unit!439)

(assert (=> b!6579 (= e!3533 (tuple3!101 Unit!442 lt!3479 lt!3478))))

(declare-fun b!6580 () Bool)

(declare-fun res!5355 () Bool)

(assert (=> b!6580 (=> res!5355 e!3526)))

(assert (=> b!6580 (= res!5355 (not (fInv!0 f!79)))))

(declare-fun b!6581 () Bool)

(declare-fun res!5351 () Bool)

(assert (=> b!6581 (=> (not res!5351) (not e!3529))))

(assert (=> b!6581 (= res!5351 (Q!0 (select (arr!253 f!79) i!190)))))

(declare-fun b!6582 () Bool)

(declare-fun res!5358 () Bool)

(assert (=> b!6582 (=> (not res!5358) (not e!3531))))

(declare-fun xxInv!0 (array!567) Bool)

(assert (=> b!6582 (= res!5358 (xxInv!0 xx!50))))

(declare-fun b!6583 () Bool)

(declare-fun res!5364 () Bool)

(assert (=> b!6583 (=> (not res!5364) (not e!3529))))

(assert (=> b!6583 (= res!5364 (qInv!0 q!51))))

(declare-fun b!6584 () Bool)

(declare-fun res!5353 () Bool)

(assert (=> b!6584 (=> (not res!5353) (not e!3529))))

(assert (=> b!6584 (= res!5353 (bvsle i!190 jz!36))))

(declare-fun b!6585 () Bool)

(assert (=> b!6585 (= e!3530 e!3535)))

(declare-fun res!5352 () Bool)

(assert (=> b!6585 (=> (not res!5352) (not e!3535))))

(declare-fun lt!3485 () (_ BitVec 32))

(assert (=> b!6585 (= res!5352 (= (bvsub e!19 (bvmul #b00000000000000000000000000011000 (bvadd (ite (bvslt lt!3485 #b00000000000000000000000000000000) #b00000000000000000000000000000000 lt!3485) #b00000000000000000000000000000001))) #b00000000000000000000000000000000))))

(assert (=> b!6585 (= lt!3485 (bvsdiv (bvsub e!19 #b00000000000000000000000000000011) #b00000000000000000000000000011000))))

(declare-fun b!6586 () Bool)

(assert (=> b!6586 (= e!3533 (timesTwoOverPiWhile!0 e!19 jz!36 xx!50 lt!3479 lt!3478))))

(declare-fun b!6587 () Bool)

(declare-fun res!5350 () Bool)

(assert (=> b!6587 (=> (not res!5350) (not e!3529))))

(assert (=> b!6587 (= res!5350 (Q!0 (select (arr!253 f!79) (bvadd i!190 #b00000000000000000000000000000011))))))

(assert (= (and start!1357 res!5356) b!6582))

(assert (= (and b!6582 res!5358) b!6577))

(assert (= (and b!6577 res!5366) b!6568))

(assert (= (and b!6568 c!815) b!6586))

(assert (= (and b!6568 (not c!815)) b!6579))

(assert (= (and b!6568 res!5361) b!6567))

(assert (= (and b!6567 res!5363) b!6583))

(assert (= (and b!6583 res!5364) b!6584))

(assert (= (and b!6584 res!5353) b!6570))

(assert (= (and b!6570 res!5357) b!6587))

(assert (= (and b!6587 res!5350) b!6575))

(assert (= (and b!6575 res!5362) b!6576))

(assert (= (and b!6576 res!5360) b!6581))

(assert (= (and b!6581 res!5351) b!6578))

(assert (= (and b!6578 res!5354) b!6574))

(assert (= (and b!6574 res!5365) b!6585))

(assert (= (and b!6585 res!5352) b!6572))

(assert (= (and b!6572 c!816) b!6569))

(assert (= (and b!6572 (not c!816)) b!6573))

(assert (= (and b!6572 (not res!5359)) b!6580))

(assert (= (and b!6580 (not res!5355)) b!6571))

(declare-fun m!11915 () Bool)

(assert (=> b!6575 m!11915))

(assert (=> b!6575 m!11915))

(declare-fun m!11917 () Bool)

(assert (=> b!6575 m!11917))

(declare-fun m!11919 () Bool)

(assert (=> b!6580 m!11919))

(declare-fun m!11921 () Bool)

(assert (=> b!6581 m!11921))

(assert (=> b!6581 m!11921))

(declare-fun m!11923 () Bool)

(assert (=> b!6581 m!11923))

(declare-fun m!11925 () Bool)

(assert (=> b!6583 m!11925))

(declare-fun m!11927 () Bool)

(assert (=> start!1357 m!11927))

(declare-fun m!11929 () Bool)

(assert (=> start!1357 m!11929))

(declare-fun m!11931 () Bool)

(assert (=> start!1357 m!11931))

(declare-fun m!11933 () Bool)

(assert (=> b!6571 m!11933))

(declare-fun m!11935 () Bool)

(assert (=> b!6571 m!11935))

(declare-fun m!11937 () Bool)

(assert (=> b!6571 m!11937))

(assert (=> b!6571 m!11915))

(declare-fun m!11939 () Bool)

(assert (=> b!6571 m!11939))

(declare-fun m!11941 () Bool)

(assert (=> b!6571 m!11941))

(assert (=> b!6571 m!11921))

(declare-fun m!11943 () Bool)

(assert (=> b!6571 m!11943))

(declare-fun m!11945 () Bool)

(assert (=> b!6571 m!11945))

(declare-fun m!11947 () Bool)

(assert (=> b!6571 m!11947))

(declare-fun m!11949 () Bool)

(assert (=> b!6571 m!11949))

(declare-fun m!11951 () Bool)

(assert (=> b!6571 m!11951))

(declare-fun m!11953 () Bool)

(assert (=> b!6586 m!11953))

(assert (=> b!6587 m!11935))

(assert (=> b!6587 m!11935))

(declare-fun m!11955 () Bool)

(assert (=> b!6587 m!11955))

(assert (=> b!6570 m!11933))

(assert (=> b!6570 m!11933))

(declare-fun m!11957 () Bool)

(assert (=> b!6570 m!11957))

(assert (=> b!6576 m!11939))

(assert (=> b!6576 m!11939))

(declare-fun m!11959 () Bool)

(assert (=> b!6576 m!11959))

(declare-fun m!11961 () Bool)

(assert (=> b!6582 m!11961))

(assert (=> b!6578 m!11933))

(assert (=> b!6578 m!11935))

(assert (=> b!6578 m!11937))

(assert (=> b!6578 m!11939))

(assert (=> b!6578 m!11947))

(assert (=> b!6578 m!11941))

(assert (=> b!6578 m!11943))

(assert (=> b!6578 m!11915))

(declare-fun m!11963 () Bool)

(assert (=> b!6578 m!11963))

(assert (=> b!6578 m!11949))

(assert (=> b!6578 m!11951))

(assert (=> b!6578 m!11921))

(assert (=> b!6578 m!11963))

(declare-fun m!11965 () Bool)

(assert (=> b!6578 m!11965))

(declare-fun m!11967 () Bool)

(assert (=> b!6569 m!11967))

(assert (=> b!6567 m!11919))

(check-sat (not b!6575) (not b!6570) (not start!1357) (not b!6583) (not b!6576) (not b!6586) (not b!6587) (not b!6569) (not b!6582) (not b!6580) (not b!6578) (not b!6581) (not b!6571) (not b!6567))
(check-sat)
